22	3

10	10	10	

0	0	0	0	3	2	3	4	
3	3	5	2	2	7	8	
2	5	4	3	2	5	7	
5	5	2	2	2	5	6	
7	4	1	4	2	9	11	
5	5	5	4	2	10	12	
2	3	5	2	2	10	11	
5	2	4	4	2	11	12	
1	3	2	2	2	13	16	
2	3	2	4	1	13	
1	3	3	2	2	13	14	
1	4	1	4	2	13	15	
2	1	4	4	1	17	
4	2	2	2	1	18	
7	5	5	4	1	17	
3	1	5	4	2	18	19	
3	4	5	4	1	20	
1	3	2	3	2	20	21	
2	5	3	3	1	20	
1	2	4	6	1	22	
4	1	6	2	1	22	
0	0	0	0	0	
